114
0 102 78 93 14 100 91 59 22 63 
71 51 26 87 104 52 49 76 96 18 
38 56 28 90 67 88 11 19 1 85 
54 105 57 9 31 60 58 41 6 35 
13 62 39 46 33 20 72 110 92 21 
101 65 106 73 94 103 107 55 74 5 
50 36 75 80 111 30 70 37 79 27 
16 45 69 8 32 99 84 44 81 4 
40 24 64 25 2 15 12 68 61 83 
95 98 109 34 113 53 48 89 77 29 
97 17 112 86 42 23 43 82 108 3 
66 10 7 47 
